10 45
1 2 21
1 3 19
1 4 12
1 5 29
1 6 2
1 7 8
1 8 0
1 9 9
1 10 17
2 3 24
2 4 21
2 5 19
2 6 1
2 7 24
2 8 17
2 9 11
2 10 27
3 4 5
3 5 20
3 6 14
3 7 23
3 8 0
3 9 4
3 10 2
4 5 15
4 6 6
4 7 7
4 8 26
4 9 3
4 10 0
5 6 26
5 7 11
5 8 24
5 9 3
5 10 27
6 7 14
6 8 12
6 9 14
6 10 26
7 8 13
7 9 22
7 10 13
8 9 23
8 10 20
9 10 28
